NAME : tsp45_19.210.tour
COMMENT : Length = 210
COMMENT : Found by LKH [Keld Helsgaun]
TYPE : TOUR
DIMENSION : 45
TOUR_SECTION
1
10
14
15
38
7
26
20
40
24
37
12
42
13
5
27
25
36
32
11
43
18
44
28
19
2
29
21
6
8
9
30
35
22
4
33
41
39
31
23
16
34
45
3
17
-1
EOF
